unknown
(model
; cardinality of BoundSet is 2
(declare-sort BoundSet 0)
; rep: @uc_BoundSet_0
; rep: @uc_BoundSet_1
; cardinality of UnboundSet is 1
(declare-sort UnboundSet 0)
(declare-fun groundTerm_3 () UnboundSet)
(define-fun IsDoingThings ((BOUND_VARIABLE_463 BoundSet)) Bool true)
(define-fun IsOnTheStreet ((BOUND_VARIABLE_463 BoundSet)) Bool true)
(define-fun IsGoingAboutTheirBusiness ((BOUND_VARIABLE_463 BoundSet)) Bool true)
(define-fun IsAt ((BOUND_VARIABLE_475 BoundSet) (BOUND_VARIABLE_476 BoundSet)) Bool false)
)
sat
(model
; cardinality of BoundSet is 1
(declare-sort BoundSet 0)
; rep: @uc_BoundSet_0
; cardinality of UnboundSet is 1
(declare-sort UnboundSet 0)
(declare-fun groundTerm_7 () UnboundSet)
(define-fun IsDoingThings ((BOUND_VARIABLE_482 BoundSet)) Bool true)
(define-fun IsOnTheStreet ((BOUND_VARIABLE_482 BoundSet)) Bool true)
(define-fun IsGoingAboutTheirBusiness ((BOUND_VARIABLE_482 BoundSet)) Bool true)
(define-fun IsAt ((BOUND_VARIABLE_490 BoundSet) (BOUND_VARIABLE_491 BoundSet)) Bool false)
)
